110
169
129
179
245
269
150
356
65
93
232
91
116
104
199
98
162
175
84
194
109
135
263
241
79
180
137
255
136
177
134
115
192
178
397
457
98
215
95
145
95
122
46
72
85
116
72
103
281
129
286
88
283
284
102
130
148
104
96
145
118
108
62
191
137
133
219
188
122
206
139
86
188
121
114
69
59
151
390
124
91
126
149
127
135
147
57
103
124
231
166
107
213
84
99
112
329
277
307
125
